************************************************************************
file with basedata            : n/a
initial value random generator: n/a
************************************************************************
projects                      :  1
jobs (incl. supersource/sink ):  122
horizon                       :  609
RESOURCES
  - renewable                 :  4   R
  - nonrenewable              :  0   N
  - doubly constrained        :  0   D
************************************************************************
PROJECT INFORMATION:
pronr.  #jobs rel.date duedate tardcost  MPM-Time
    1    120      0       72       32       72
************************************************************************
PRECEDENCE RELATIONS:
jobnr.    #modes  #successors   successors
   1        1          3           2   3   4
   2        1          3           5  13  56
   3        1          3           7  15  18
   4        1          1          40
   5        1          3           6  27  52
   6        1          3          10  16  47
   7        1          3           8   9  12
   8        1          3          11  19  49
   9        1          3          14  29  46
  10        1          2          21  55
  11        1          3          23  24  60
  12        1          1          26
  13        1          3          30 107 112
  14        1          1          89
  15        1          3          35  41  42
  16        1          3          17  20  25
  17        1          1          31
  18        1          3          22  33  43
  19        1          1          44
  20        1          1          75
  21        1          1          73
  22        1          3          54  75  84
  23        1          3          32  34  64
  24        1          3          50  63  77
  25        1          3          28  36  90
  26        1          3          53  61  66
  27        1          2          37  48
  28        1          1          69
  29        1          1          51
  30        1          1          70
  31        1          1          45
  32        1          1          79
  33        1          3          38  44  99
  34        1          1          91
  35        1          1          57
  36        1          1          71
  37        1          1          74
  38        1          2          39  90
  39        1          2          58  65
  40        1          1          94
  41        1          1          77
  42        1          1          80
  43        1          2          66 102
  44        1          1          67
  45        1          3          62  72 109
  46        1          1          76
  47        1          2          67  75
  48        1          1          86
  49        1          1         106
  50        1          1          81
  51        1          1          93
  52        1          2          71 102
  53        1          1          59
  54        1          2         103 105
  55        1          1          96
  56        1          1         118
  57        1          3          83 107 114
  58        1          1          91
  59        1          1          81
  60        1          1         119
  61        1          1          87
  62        1          1          68
  63        1          1          68
  64        1          1         109
  65        1          1          88
  66        1          2          91  94
  67        1          1         115
  68        1          1         110
  69        1          1          86
  70        1          3          78  85 108
  71        1          1         120
  72        1          1          79
  73        1          1          79
  74        1          2          82  92
  75        1          2         100 101
  76        1          1          97
  77        1          1          88
  78        1          1         103
  79        1          1          95
  80        1          1          94
  81        1          1          86
  82        1          1          95
  83        1          1         100
  84        1          1         100
  85        1          2          96 115
  86        1          1          99
  87        1          1         117
  88        1          1          92
  89        1          2         104 105
  90        1          1         121
  91        1          1         113
  92        1          1         117
  93        1          2          96 112
  94        1          1          95
  95        1          1         108
  96        1          1          98
  97        1          1         104
  98        1          2         105 111
  99        1          1         119
 100        1          2         106 109
 101        1          1         106
 102        1          1         111
 103        1          2         110 117
 104        1          1         108
 105        1          1         114
 106        1          1         113
 107        1          1         119
 108        1          2         111 115
 109        1          1         110
 110        1          1         116
 111        1          1         116
 112        1          1         114
 113        1          1         118
 114        1          1         118
 115        1          1         116
 116        1          1         120
 117        1          1         120
 118        1          1         121
 119        1          1         122
 120        1          1         122
 121        1          1         122
 122        1          0        
************************************************************************
REQUESTS/DURATIONS:
jobnr. mode duration  R 1  R 2  R 3  R 4
------------------------------------------------------------------------
  1      1     0    
  2      1     2       3   3
                       8   8
                       3   3
                       2   2
  3      1     1       2
                       5
                       3
                       1
  4      1     5       2   0   2   2   2
                       4   0   4   4   4
                       2   0   2   2   2
                       1   0   1   1   1
  5      1     7       7   7   7   7   7   0   7
                       2   2   2   2   2   0   2
                       7   7   7   7   7   0   7
                       5   5   5   5   5   0   5
  6      1     2       5   5
                       4   4
                       5   5
                       8   8
  7      1     5       4   4   4   4   4
                       4   4   4   4   4
                       5   5   5   5   5
                       2   2   2   2   2
  8      1     8       0   8   8   8   8   8   8   8
                       0   2   2   2   2   2   2   2
                       0   1   1   1   1   1   1   1
                       0   4   4   4   4   4   4   4
  9      1     3       9   9   9
                       4   4   4
                       3   3   3
                       7   7   7
 10      1     1       6
                       7
                       3
                       8
 11      1     1       8
                       1
                       6
                       6
 12      1     1       3
                       7
                       2
                      10
 13      1     5       3   0   3   3   3
                       3   0   3   3   3
                       7   0   7   7   7
                       8   0   8   8   8
 14      1     5       1   1   0   1   1
                       1   1   0   1   1
                      10  10   0  10  10
                       2   2   0   2   2
 15      1     7       9   9   9   9   9   9   9
                       9   9   9   9   9   9   9
                       8   8   8   8   8   8   8
                       3   3   3   3   3   3   3
 16      1     4       7   7   7   7
                      10  10  10  10
                       7   7   7   7
                       3   3   3   3
 17      1     9       7   7   7   7   7   7   7   0   7
                       7   7   7   7   7   7   7   0   7
                       9   9   9   9   9   9   9   0   9
                       2   2   2   2   2   2   2   0   2
 18      1     1       7
                       5
                       8
                       5
 19      1     9       8   0   0   8   8   8   8   0   8
                      10   0   0  10  10  10  10   0  10
                      10   0   0  10  10  10  10   0  10
                       8   0   0   8   8   8   8   0   8
 20      1     9       4   4   4   4   4   4   4   4   4
                       9   9   9   9   9   9   9   9   9
                       6   6   6   6   6   6   6   6   6
                      10  10  10  10  10  10  10  10  10
 21      1     6       3   3   0   3   3   3
                       6   6   0   6   6   6
                       5   5   0   5   5   5
                       4   4   0   4   4   4
 22      1     7       8   8   8   8   8   8   8
                       3   3   3   3   3   3   3
                       5   5   5   5   5   5   5
                       3   3   3   3   3   3   3
 23      1     7       6   6   6   6   6   6   6
                       6   6   6   6   6   6   6
                       8   8   8   8   8   8   8
                       7   7   7   7   7   7   7
 24      1     8       3   3   3   3   3   0   3   3
                       2   2   2   2   2   0   2   2
                      10  10  10  10  10   0  10  10
                      10  10  10  10  10   0  10  10
 25      1     8       9   9   9   9   9   9   9   9
                       9   9   9   9   9   9   9   9
                       6   6   6   6   6   6   6   6
                       3   3   3   3   3   3   3   3
 26      1     9       2   2   2   2   2   2   2   2   2
                       6   6   6   6   6   6   6   6   6
                       4   4   4   4   4   4   4   4   4
                      10  10  10  10  10  10  10  10  10
 27      1     5       9   9   9   0   9
                       6   6   6   0   6
                       8   8   8   0   8
                       8   8   8   0   8
 28      1     8       6   6   6   6   6   6   6   0
                       4   4   4   4   4   4   4   0
                       9   9   9   9   9   9   9   0
                       7   7   7   7   7   7   7   0
 29      1     1       9
                       8
                       4
                       8
 30      1     1       8
                       4
                       5
                       3
 31      1     5       3   0   3   3   3
                       5   0   5   5   5
                       9   0   9   9   9
                       5   0   5   5   5
 32      1     1       5
                       3
                       9
                       8
 33      1     4       5   5   5   0
                       6   6   6   0
                       1   1   1   0
                       8   8   8   0
 34      1     3       3   3   3
                       6   6   6
                       7   7   7
                       7   7   7
 35      1     8       0   0   3   3   3   0   3   3
                       0   0   1   1   1   0   1   1
                       0   0   1   1   1   0   1   1
                       0   0   1   1   1   0   1   1
 36      1     3      10  10  10
                       3   3   3
                       1   1   1
                       6   6   6
 37      1     7       8   8   8   8   8   8   8
                       7   7   7   7   7   7   7
                       7   7   7   7   7   7   7
                       5   5   5   5   5   5   5
 38      1     9       3   3   3   3   3   3   0   3   3
                       3   3   3   3   3   3   0   3   3
                       4   4   4   4   4   4   0   4   4
                      10  10  10  10  10  10   0  10  10
 39      1     4       1   1   1   1
                       9   9   9   9
                       9   9   9   9
                       6   6   6   6
 40      1     1       5
                       2
                       7
                      10
 41      1     8      10  10  10  10  10  10  10  10
                       7   7   7   7   7   7   7   7
                       6   6   6   6   6   6   6   6
                       1   1   1   1   1   1   1   1
 42      1     1       0
                       0
                       0
                       0
 43      1     2       4   0
                       8   0
                       3   0
                       3   0
 44      1    10       6   6   0   6   6   6   6   6   6   6
                       2   2   0   2   2   2   2   2   2   2
                       2   2   0   2   2   2   2   2   2   2
                      10  10   0  10  10  10  10  10  10  10
 45      1     9       1   1   0   1   1   1   1   1   1
                       5   5   0   5   5   5   5   5   5
                       4   4   0   4   4   4   4   4   4
                       3   3   0   3   3   3   3   3   3
 46      1     5       5   5   5   5   5
                       6   6   6   6   6
                       8   8   8   8   8
                       6   6   6   6   6
 47      1     4       2   2   2   2
                       5   5   5   5
                       7   7   7   7
                       8   8   8   8
 48      1     2       6   6
                       5   5
                       9   9
                      10  10
 49      1     1      10
                      10
                      10
                       6
 50      1     9       7   7   7   7   7   7   7   7   7
                       5   5   5   5   5   5   5   5   5
                       3   3   3   3   3   3   3   3   3
                       8   8   8   8   8   8   8   8   8
 51      1     2      10  10
                       8   8
                       5   5
                       4   4
 52      1     9       8   8   8   8   8   8   8   8   8
                       2   2   2   2   2   2   2   2   2
                       5   5   5   5   5   5   5   5   5
                       4   4   4   4   4   4   4   4   4
 53      1     8       7   0   7   7   7   7   7   7
                       3   0   3   3   3   3   3   3
                       7   0   7   7   7   7   7   7
                       4   0   4   4   4   4   4   4
 54      1     5       8   0   8   0   8
                       9   0   9   0   9
                       7   0   7   0   7
                       1   0   1   0   1
 55      1     1       6
                       4
                       3
                       3
 56      1     4       2   2   2   2
                       9   9   9   9
                       6   6   6   6
                       5   5   5   5
 57      1     1      10
                      10
                       7
                       5
 58      1     3       0   4   4
                       0   9   9
                       0   1   1
                       0   6   6
 59      1     9       8   8   8   8   8   8   8   8   8
                       4   4   4   4   4   4   4   4   4
                       4   4   4   4   4   4   4   4   4
                       5   5   5   5   5   5   5   5   5
 60      1    10       9   9   9   0   9   9   9   0   9   9
                       7   7   7   0   7   7   7   0   7   7
                      10  10  10   0  10  10  10   0  10  10
                      10  10  10   0  10  10  10   0  10  10
 61      1     8       3   3   3   0   3   3   3   0
                       2   2   2   0   2   2   2   0
                      10  10  10   0  10  10  10   0
                       3   3   3   0   3   3   3   0
 62      1     1       9
                       7
                       1
                       6
 63      1     4       1   1   1   1
                       6   6   6   6
                       1   1   1   1
                       6   6   6   6
 64      1     4       3   3   3   3
                       8   8   8   8
                      10  10  10  10
                       8   8   8   8
 65      1     7      10  10  10  10  10  10   0
                       2   2   2   2   2   2   0
                       9   9   9   9   9   9   0
                      10  10  10  10  10  10   0
 66      1     9       1   1   1   1   1   1   1   1   1
                      10  10  10  10  10  10  10  10  10
                       7   7   7   7   7   7   7   7   7
                       2   2   2   2   2   2   2   2   2
 67      1     4       5   5   5   0
                       2   2   2   0
                       3   3   3   0
                       7   7   7   0
 68      1     4      10  10  10  10
                      10  10  10  10
                       2   2   2   2
                       7   7   7   7
 69      1     8       8   8   8   8   0   8   8   8
                       7   7   7   7   0   7   7   7
                       1   1   1   1   0   1   1   1
                       6   6   6   6   0   6   6   6
 70      1     4       1   1   1   1
                       6   6   6   6
                       8   8   8   8
                       2   2   2   2
 71      1     5       1   0   1   1   0
                       5   0   5   5   0
                       4   0   4   4   0
                       8   0   8   8   0
 72      1     4       1   1   1   1
                       6   6   6   6
                       5   5   5   5
                       9   9   9   9
 73      1     1       1
                       6
                       1
                       6
 74      1     4       1   1   1   1
                       5   5   5   5
                       7   7   7   7
                       5   5   5   5
 75      1     7      10  10  10  10  10  10  10
                       3   3   3   3   3   3   3
                      10  10  10  10  10  10  10
                       7   7   7   7   7   7   7
 76      1     5       0  10  10   0  10
                       0   3   3   0   3
                       0   3   3   0   3
                       0   6   6   0   6
 77      1     2       5   5
                       3   3
                       5   5
                       4   4
 78      1     8       2   0   2   2   0   2   2   2
                       7   0   7   7   0   7   7   7
                       2   0   2   2   0   2   2   2
                       6   0   6   6   0   6   6   6
 79      1    10       0   7   7   7   7   7   7   7   7   7
                       0   8   8   8   8   8   8   8   8   8
                       0   1   1   1   1   1   1   1   1   1
                       0   2   2   2   2   2   2   2   2   2
 80      1     1       7
                       9
                       9
                       6
 81      1     1       3
                       6
                       3
                       7
 82      1     7       9   0   9   9   9   0   9
                       7   0   7   7   7   0   7
                       9   0   9   9   9   0   9
                       5   0   5   5   5   0   5
 83      1     1       2
                      10
                       8
                       6
 84      1     7       5   5   5   5   5   5   5
                       1   1   1   1   1   1   1
                       9   9   9   9   9   9   9
                       8   8   8   8   8   8   8
 85      1     8       1   0   1   1   1   1   1   1
                       4   0   4   4   4   4   4   4
                       3   0   3   3   3   3   3   3
                       6   0   6   6   6   6   6   6
 86      1     7       7   0   7   7   0   7   7
                       3   0   3   3   0   3   3
                       1   0   1   1   0   1   1
                       5   0   5   5   0   5   5
 87      1     3       2   2   2
                       6   6   6
                       4   4   4
                       3   3   3
 88      1     1      10
                       2
                       6
                       1
 89      1     6       5   5   5   5   5   5
                       8   8   8   8   8   8
                      10  10  10  10  10  10
                       7   7   7   7   7   7
 90      1     6       6   6   6   6   6   6
                       4   4   4   4   4   4
                       9   9   9   9   9   9
                       2   2   2   2   2   2
 91      1     6       6   0   6   6   6   6
                      10   0  10  10  10  10
                       8   0   8   8   8   8
                       5   0   5   5   5   5
 92      1     9       4   4   4   4   4   4   4   4   4
                       3   3   3   3   3   3   3   3   3
                       6   6   6   6   6   6   6   6   6
                       2   2   2   2   2   2   2   2   2
 93      1     9       5   5   5   5   5   5   5   5   5
                       1   1   1   1   1   1   1   1   1
                       5   5   5   5   5   5   5   5   5
                       1   1   1   1   1   1   1   1   1
 94      1     3       9   9   0
                       6   6   0
                       3   3   0
                       3   3   0
 95      1     5       6   6   6   6   6
                       3   3   3   3   3
                       3   3   3   3   3
                       8   8   8   8   8
 96      1     9       0   5   5   5   5   0   5   5   5
                       0   1   1   1   1   0   1   1   1
                       0   9   9   9   9   0   9   9   9
                       0   7   7   7   7   0   7   7   7
 97      1     8       3   3   3   3   3   3   3   3
                       5   5   5   5   5   5   5   5
                       2   2   2   2   2   2   2   2
                      10  10  10  10  10  10  10  10
 98      1     5       6   6   6   6   6
                       7   7   7   7   7
                       9   9   9   9   9
                       8   8   8   8   8
 99      1    10       4   0   4   4   4   4   0   4   4   0
                      10   0  10  10  10  10   0  10  10   0
                       8   0   8   8   8   8   0   8   8   0
                       9   0   9   9   9   9   0   9   9   0
100      1     5       7   7   7   7   7
                       1   1   1   1   1
                       8   8   8   8   8
                       4   4   4   4   4
101      1     4       0   0   9   9
                       0   0   4   4
                       0   0   4   4
                       0   0   8   8
102      1     9       6   6   6   6   6   6   6   6   6
                       5   5   5   5   5   5   5   5   5
                       8   8   8   8   8   8   8   8   8
                       6   6   6   6   6   6   6   6   6
103      1     1       9
                       2
                       5
                       5
104      1     7       1   1   1   1   1   1   1
                      10  10  10  10  10  10  10
                      10  10  10  10  10  10  10
                       9   9   9   9   9   9   9
105      1     9       2   2   2   2   2   2   0   2   2
                       6   6   6   6   6   6   0   6   6
                       4   4   4   4   4   4   0   4   4
                       6   6   6   6   6   6   0   6   6
106      1     5       6   6   6   6   6
                       2   2   2   2   2
                       5   5   5   5   5
                       5   5   5   5   5
107      1    10       6   6   6   0   6   6   6   6   0   6
                       8   8   8   0   8   8   8   8   0   8
                       9   9   9   0   9   9   9   9   0   9
                       9   9   9   0   9   9   9   9   0   9
108      1     2       2   2
                       4   4
                       9   9
                       1   1
109      1     5       8   8   8   8   8
                       3   3   3   3   3
                      10  10  10  10  10
                      10  10  10  10  10
110      1     2       6   6
                       1   1
                       6   6
                       8   8
111      1     5       9   9   9   0   9
                       1   1   1   0   1
                       7   7   7   0   7
                      10  10  10   0  10
112      1     4       7   7   7   7
                       4   4   4   4
                       9   9   9   9
                       8   8   8   8
113      1     9       1   1   1   0   1   1   0   1   1
                       7   7   7   0   7   7   0   7   7
                       4   4   4   0   4   4   0   4   4
                       1   1   1   0   1   1   0   1   1
114      1     1       0
                       0
                       0
                       0
115      1     6       7   7   7   7   7   7
                       6   6   6   6   6   6
                       5   5   5   5   5   5
                       4   4   4   4   4   4
116      1     2       0   1
                       0   9
                       0   1
                       0   7
117      1     6       3   3   3   3   3   3
                       7   7   7   7   7   7
                       8   8   8   8   8   8
                       7   7   7   7   7   7
118      1     1       2
                       2
                       6
                       3
119      1     3       0   3   3
                       0   7   7
                       0   9   9
                       0   6   6
120      1     5       0   1   1   1   1
                       0   9   9   9   9
                       0   7   7   7   7
                       0   3   3   3   3
121      1     4       7   7   7   7
                       6   6   6   6
                       7   7   7   7
                      10  10  10  10
122      1     0    
************************************************************************
RESOURCEAVAILABILITIES:
  R 1  R 2  R 3  R 4

  32  32  32  32  32  32  32  32  32  32  32  32  32  32  32  32  32   0  32  32  32  32  32  32  32  32  32  32  32  32  32  32  32  32  32  32  32  32  32   0   0  32  32  32  32  32  32   0  32  32  32  32  32  32  32   0  32  32  32  32  32  32  32   0  32  32   0  32  32  32  32   0  32  32  32  32  32  32  32  32  32  32  32  32  32  32  32  32  32   0   0   0   0  32  32  32  32   0  32  32  32  32  32   0   0  32   0  32  32   0  32   0  32  32  32  32  32   0  32  32  32  32  32   0  32   0  32  32  32   0  32  32  32  32  32  32  32  32  32  32  32  32  32  32  32  32   0  32  32  32  32  32  32  32  32  32  32  32  32  32   0   0  32  32  32  32  32  32   0  32  32  32  32  32  32   0  32  32  32  32  32  32  32  32  32   0  32  32  32  32  32  32  32  32  32  32  32  32  32  32  32  32  32  32   0  32   0  32  32  32  32  32  32  32  32  32  32  32   0  32  32  32  32  32  32  32  32  32  32  32  32  32  32  32  32   0  32  32  32  32  32  32  32  32  32  32  32  32  32  32  32  32  32  32  32   0  32   0  32  32  32  32  32  32  32  32  32  32   0  32   0  32  32  32  32  32  32  32  32  32  32   0  32  32  32  32  32  32  32  32   0  32  32  32  32  32  32  32  32  32  32   0  32  32  32  32  32  32  32  32  32   0  32  32  32  32  32  32  32  32  32  32  32   0   0  32  32  32  32  32  32  32  32  32  32  32  32  32  32   0  32  32  32  32  32  32  32  32   0  32  32  32  32  32   0  32  32  32  32  32  32  32  32  32  32  32  32  32  32  32  32   0  32  32  32  32  32  32  32  32  32  32  32  32  32  32  32  32  32  32  32  32  32  32  32  32  32  32  32  32  32  32  32  32  32  32  32   0  32  32  32  32  32  32  32  32   0   0  32  32  32  32  32   0  32  32  32  32   0  32  32  32   0  32  32   0   0  32  32  32  32  32  32  32  32  32  32  32   0   0  32  32  32  32  32  32  32  32  32  32  32  32  32  32  32  32  32  32  32  32  32  32  32  32  32  32  32  32  32  32  32  32  32  32  32  32  32  32  32  32  32  32  32   0  32  32  32  32  32  32  32  32  32  32  32  32  32  32  32  32  32  32  32  32  32  32  32  32  32  32  32  32  32  32  32  32  32  32   0  32  32  32   0  32  32  32  32  32   0  32  32  32  32  32  32  32   0  32  32  32  32  32  32  32   0  32  32  32  32  32  32  32  32  32  32  32  32  32   0  32  32  32  32  32  32  32  32  32  32  32  32  32  32  32  32  32  32  32   0  32  32  32  32  32  32   0  32  32  32   0  32  32  32  32   0   0  32  32  32

  34  34  34  34  34  34  34  34  34  34  34  34  34  34  34  34  34   0  34  34  34  34  34  34  34  34  34  34  34  34  34  34  34  34  34  34  34  34  34   0   0  34  34  34  34  34  34   0  34  34  34  34  34  34  34   0  34  34  34  34  34  34  34   0  34  34   0  34  34  34  34   0  34  34  34  34  34  34  34  34  34  34  34  34  34  34  34  34  34   0   0   0   0  34  34  34  34   0  34  34  34  34  34   0   0  34   0  34  34   0  34   0  34  34  34  34  34   0  34  34  34  34  34   0  34   0  34  34  34   0  34  34  34  34  34  34  34  34  34  34  34  34  34  34  34  34   0  34  34  34  34  34  34  34  34  34  34  34  34  34   0   0  34  34  34  34  34  34   0  34  34  34  34  34  34   0  34  34  34  34  34  34  34  34  34   0  34  34  34  34  34  34  34  34  34  34  34  34  34  34  34  34  34  34   0  34   0  34  34  34  34  34  34  34  34  34  34  34   0  34  34  34  34  34  34  34  34  34  34  34  34  34  34  34  34   0  34  34  34  34  34  34  34  34  34  34  34  34  34  34  34  34  34  34  34   0  34   0  34  34  34  34  34  34  34  34  34  34   0  34   0  34  34  34  34  34  34  34  34  34  34   0  34  34  34  34  34  34  34  34   0  34  34  34  34  34  34  34  34  34  34   0  34  34  34  34  34  34  34  34  34   0  34  34  34  34  34  34  34  34  34  34  34   0   0  34  34  34  34  34  34  34  34  34  34  34  34  34  34   0  34  34  34  34  34  34  34  34   0  34  34  34  34  34   0  34  34  34  34  34  34  34  34  34  34  34  34  34  34  34  34   0  34  34  34  34  34  34  34  34  34  34  34  34  34  34  34  34  34  34  34  34  34  34  34  34  34  34  34  34  34  34  34  34  34  34  34   0  34  34  34  34  34  34  34  34   0   0  34  34  34  34  34   0  34  34  34  34   0  34  34  34   0  34  34   0   0  34  34  34  34  34  34  34  34  34  34  34   0   0  34  34  34  34  34  34  34  34  34  34  34  34  34  34  34  34  34  34  34  34  34  34  34  34  34  34  34  34  34  34  34  34  34  34  34  34  34  34  34  34  34  34  34   0  34  34  34  34  34  34  34  34  34  34  34  34  34  34  34  34  34  34  34  34  34  34  34  34  34  34  34  34  34  34  34  34  34  34   0  34  34  34   0  34  34  34  34  34   0  34  34  34  34  34  34  34   0  34  34  34  34  34  34  34   0  34  34  34  34  34  34  34  34  34  34  34  34  34   0  34  34  34  34  34  34  34  34  34  34  34  34  34  34  34  34  34  34  34   0  34  34  34  34  34  34   0  34  34  34   0  34  34  34  34   0   0  34  34  34

  39  39  39  39  39  39  39  39  39  39  39  39  39  39  39  39  39   0  39  39  39  39  39  39  39  39  39  39  39  39  39  39  39  39  39  39  39  39  39   0   0  39  39  39  39  39  39   0  39  39  39  39  39  39  39   0  39  39  39  39  39  39  39   0  39  39   0  39  39  39  39   0  39  39  39  39  39  39  39  39  39  39  39  39  39  39  39  39  39   0   0   0   0  39  39  39  39   0  39  39  39  39  39   0   0  39   0  39  39   0  39   0  39  39  39  39  39   0  39  39  39  39  39   0  39   0  39  39  39   0  39  39  39  39  39  39  39  39  39  39  39  39  39  39  39  39   0  39  39  39  39  39  39  39  39  39  39  39  39  39   0   0  39  39  39  39  39  39   0  39  39  39  39  39  39   0  39  39  39  39  39  39  39  39  39   0  39  39  39  39  39  39  39  39  39  39  39  39  39  39  39  39  39  39   0  39   0  39  39  39  39  39  39  39  39  39  39  39   0  39  39  39  39  39  39  39  39  39  39  39  39  39  39  39  39   0  39  39  39  39  39  39  39  39  39  39  39  39  39  39  39  39  39  39  39   0  39   0  39  39  39  39  39  39  39  39  39  39   0  39   0  39  39  39  39  39  39  39  39  39  39   0  39  39  39  39  39  39  39  39   0  39  39  39  39  39  39  39  39  39  39   0  39  39  39  39  39  39  39  39  39   0  39  39  39  39  39  39  39  39  39  39  39   0   0  39  39  39  39  39  39  39  39  39  39  39  39  39  39   0  39  39  39  39  39  39  39  39   0  39  39  39  39  39   0  39  39  39  39  39  39  39  39  39  39  39  39  39  39  39  39   0  39  39  39  39  39  39  39  39  39  39  39  39  39  39  39  39  39  39  39  39  39  39  39  39  39  39  39  39  39  39  39  39  39  39  39   0  39  39  39  39  39  39  39  39   0   0  39  39  39  39  39   0  39  39  39  39   0  39  39  39   0  39  39   0   0  39  39  39  39  39  39  39  39  39  39  39   0   0  39  39  39  39  39  39  39  39  39  39  39  39  39  39  39  39  39  39  39  39  39  39  39  39  39  39  39  39  39  39  39  39  39  39  39  39  39  39  39  39  39  39  39   0  39  39  39  39  39  39  39  39  39  39  39  39  39  39  39  39  39  39  39  39  39  39  39  39  39  39  39  39  39  39  39  39  39  39   0  39  39  39   0  39  39  39  39  39   0  39  39  39  39  39  39  39   0  39  39  39  39  39  39  39   0  39  39  39  39  39  39  39  39  39  39  39  39  39   0  39  39  39  39  39  39  39  39  39  39  39  39  39  39  39  39  39  39  39   0  39  39  39  39  39  39   0  39  39  39   0  39  39  39  39   0   0  39  39  39

  37  37  37  37  37  37  37  37  37  37  37  37  37  37  37  37  37   0  37  37  37  37  37  37  37  37  37  37  37  37  37  37  37  37  37  37  37  37  37   0   0  37  37  37  37  37  37   0  37  37  37  37  37  37  37   0  37  37  37  37  37  37  37   0  37  37   0  37  37  37  37   0  37  37  37  37  37  37  37  37  37  37  37  37  37  37  37  37  37   0   0   0   0  37  37  37  37   0  37  37  37  37  37   0   0  37   0  37  37   0  37   0  37  37  37  37  37   0  37  37  37  37  37   0  37   0  37  37  37   0  37  37  37  37  37  37  37  37  37  37  37  37  37  37  37  37   0  37  37  37  37  37  37  37  37  37  37  37  37  37   0   0  37  37  37  37  37  37   0  37  37  37  37  37  37   0  37  37  37  37  37  37  37  37  37   0  37  37  37  37  37  37  37  37  37  37  37  37  37  37  37  37  37  37   0  37   0  37  37  37  37  37  37  37  37  37  37  37   0  37  37  37  37  37  37  37  37  37  37  37  37  37  37  37  37   0  37  37  37  37  37  37  37  37  37  37  37  37  37  37  37  37  37  37  37   0  37   0  37  37  37  37  37  37  37  37  37  37   0  37   0  37  37  37  37  37  37  37  37  37  37   0  37  37  37  37  37  37  37  37   0  37  37  37  37  37  37  37  37  37  37   0  37  37  37  37  37  37  37  37  37   0  37  37  37  37  37  37  37  37  37  37  37   0   0  37  37  37  37  37  37  37  37  37  37  37  37  37  37   0  37  37  37  37  37  37  37  37   0  37  37  37  37  37   0  37  37  37  37  37  37  37  37  37  37  37  37  37  37  37  37   0  37  37  37  37  37  37  37  37  37  37  37  37  37  37  37  37  37  37  37  37  37  37  37  37  37  37  37  37  37  37  37  37  37  37  37   0  37  37  37  37  37  37  37  37   0   0  37  37  37  37  37   0  37  37  37  37   0  37  37  37   0  37  37   0   0  37  37  37  37  37  37  37  37  37  37  37   0   0  37  37  37  37  37  37  37  37  37  37  37  37  37  37  37  37  37  37  37  37  37  37  37  37  37  37  37  37  37  37  37  37  37  37  37  37  37  37  37  37  37  37  37   0  37  37  37  37  37  37  37  37  37  37  37  37  37  37  37  37  37  37  37  37  37  37  37  37  37  37  37  37  37  37  37  37  37  37   0  37  37  37   0  37  37  37  37  37   0  37  37  37  37  37  37  37   0  37  37  37  37  37  37  37   0  37  37  37  37  37  37  37  37  37  37  37  37  37   0  37  37  37  37  37  37  37  37  37  37  37  37  37  37  37  37  37  37  37   0  37  37  37  37  37  37   0  37  37  37   0  37  37  37  37   0   0  37  37  37

************************************************************************
